************************************************************************
file with basedata            : md375_.bas
initial value random generator: 1884986721
************************************************************************
projects                      :  1
jobs (incl. supersource/sink ):  22
horizon                       :  138
RESOURCES
  - renewable                 :  2   R
  - nonrenewable              :  2   N
  - doubly constrained        :  0   D
************************************************************************
PROJECT INFORMATION:
pronr.  #jobs rel.date duedate tardcost  MPM-Time
    1     20      0       24       13       24
************************************************************************
PRECEDENCE RELATIONS:
jobnr.    #modes  #successors   successors
   1        1          3           2   3   4
   2        3          3           5   8  12
   3        3          3           6   7  17
   4        3          3           6   9  12
   5        3          2          10  18
   6        3          3          16  20  21
   7        3          3           8  10  13
   8        3          3          11  19  20
   9        3          2          10  16
  10        3          1          15
  11        3          1          21
  12        3          1          15
  13        3          3          14  15  21
  14        3          1          16
  15        3          1          19
  16        3          1          18
  17        3          2          18  20
  18        3          1          19
  19        3          1          22
  20        3          1          22
  21        3          1          22
  22        1          0        
************************************************************************
REQUESTS/DURATIONS:
jobnr. mode duration  R 1  R 2  N 1  N 2
------------------------------------------------------------------------
  1      1     0       0    0    0    0
  2      1     1       6    4    6    5
         2     7       5    3    1    5
         3     7       5    2    3    4
  3      1     1       9    3    4    6
         2     1       8    3    4    7
         3     3       7    3    4    6
  4      1     6       5    3    4    7
         2     8       4    2    2    7
         3     8       3    2    3    7
  5      1     1       8    8    8    9
         2     2       5    6    5    8
         3     2       5    7    5    6
  6      1     3       9    5    7    7
         2     4       6    3    7    6
         3     7       5    2    6    4
  7      1     5       8    9    7    9
         2     6       7    9    4    9
         3     7       6    9    2    7
  8      1     1      10    7    2   10
         2     6       8    4    2    6
         3    10       6    2    2    2
  9      1     7       9    8    3    3
         2     7       6    8    4    6
         3     7       8    7    4    6
 10      1     3      10    5    5    3
         2    10       9    5    4    2
         3    10      10    4    5    3
 11      1     2      10    6    6   10
         2     2       6    9    7   10
         3     9       2    6    4    7
 12      1     1       8    6    8    6
         2     4       3    5    5    5
         3     6       1    2    4    4
 13      1     1       7    7    2    5
         2     3       6    4    2    5
         3     5       5    1    1    5
 14      1     2       4    6    4    3
         2     6       4    4    4    2
         3     8       4    3    3    2
 15      1     1       8    8    5    7
         2     2       6    4    4    6
         3     2       5    4    5    6
 16      1     6      10    5    8    4
         2     7       7    5    3    3
         3     7       5    4    3    4
 17      1     1       9    6    5    7
         2     5       7    6    3    3
         3     9       7    5    2    3
 18      1     2       7    8    9    6
         2     6       5    7    7    3
         3    10       5    4    5    2
 19      1     3       7    6    2    8
         2     7       4    3    2    4
         3     7       6    1    1    3
 20      1     1       1    5   10    4
         2     3       1    4    7    3
         3     4       1    3    6    3
 21      1     1       8    9    4    4
         2     8       7    9    4    4
         3    10       7    9    3    1
 22      1     0       0    0    0    0
************************************************************************
RESOURCEAVAILABILITIES:
  R 1  R 2  N 1  N 2
   35   27  100  115
************************************************************************
MAXIMAL LAGS:
from  to  type  delay
    1   22   ES      0
    1    2   ES      0
    2   22   ES      0
    1    3   ES      0
    3   22   ES      0
    1    4   ES      0
    4   22   ES      0
    1    5   ES      0
    5   22   ES      0
    1    6   ES      0
    6   22   ES      0
    1    7   ES      0
    7   22   ES      0
    1    8   ES      0
    8   22   ES      0
    1    9   ES      0
    9   22   ES      0
    1   10   ES      0
   10   22   ES      0
    1   11   ES      0
   11   22   ES      0
    1   12   ES      0
   12   22   ES      0
    1   13   ES      0
   13   22   ES      0
    1   14   ES      0
   14   22   ES      0
    1   15   ES      0
   15   22   ES      0
    1   16   ES      0
   16   22   ES      0
    1   17   ES      0
   17   22   ES      0
    1   18   ES      0
   18   22   ES      0
    1   19   ES      0
   19   22   ES      0
    1   20   ES      0
   20   22   ES      0
    1   21   ES      0
   21   22   ES      0
    1   22   ES      0
    2    5   SS      1
    2    5   SE     -9
    2    5   ES     11
    2    5   EE    -12
    2    8   SS      5
    2    8   SE      5
    2    8   ES    -11
    2    8   EE     -8
    2   12   SS     -1
    2   12   SE      3
    2   12   ES      9
    2   12   EE    -11
    3    6   SS    -10
    3    6   SE      0
    3    6   ES      8
    3    6   EE     -7
    3    7   SS     10
    3    7   SE    -11
    3    7   ES     11
    3    7   EE      8
    3   17   SS      0
    3   17   SE     10
    3   17   ES     -5
    3   17   EE      2
    4    6   SS    -11
    4    6   SE     -5
    4    6   ES     -1
    4    6   EE     -2
    4    9   SS      7
    4    9   SE     -1
    4    9   ES      7
    4    9   EE     -9
    4   12   SS     -2
    4   12   SE     -9
   12    4   SE      0
    4   12   ES      0
    4   12   EE      2
    5   10   SS      0
    5   10   SE     12
    5   10   ES    -10
    5   10   EE      1
    5   18   SS     10
    5   18   SE      1
    5   18   ES     -8
    5   18   EE      6
    6   16   SS      0
    6   16   SE     -1
    6   16   ES      5
    6   16   EE      0
    6   20   SS     11
    6   20   SE     -6
    6   20   ES      0
    6   20   EE    -11
    6   21   SS     -8
    6   21   SE     12
    6   21   ES     -1
    6   21   EE     -5
    7    8   SS      0
    7    8   SE      4
    7    8   ES      3
    7    8   EE     -6
    7   10   SS     -8
    7   10   SE    -11
    7   10   ES      7
    7   10   EE     -8
    7   13   SS     -7
    7   13   SE     -2
    7   13   ES     -4
    7   13   EE     -1
    8   11   SS    -11
    8   11   SE      5
    8   11   ES    -12
    8   11   EE      0
    8   19   SS      7
    8   19   SE     -4
    8   19   ES    -12
    8   19   EE      7
    8   20   SS      2
    8   20   SE      5
    8   20   ES      2
    8   20   EE     -6
    9   10   SS      8
    9   10   SE      5
    9   10   ES      3
    9   10   EE     -9
    9   16   SS      5
    9   16   SE     -6
    9   16   ES      8
    9   16   EE     -3
   10   15   SS     -9
   10   15   SE     12
   10   15   ES    -11
   10   15   EE    -11
   11   21   SS      8
   11   21   SE    -12
   11   21   ES      1
   11   21   EE      0
   12   15   SS     -2
   12   15   SE      5
   12   15   ES     -3
   12   15   EE      4
   13   14   SS     -3
   13   14   SE     -5
   13   14   ES     10
   13   14   EE     12
   13   15   SS      6
   13   15   SE     -5
   13   15   ES    -12
   13   15   EE     12
   13   21   SS    -12
   13   21   SE     -4
   13   21   ES      1
   13   21   EE    -11
   14   16   SS     -5
   14   16   SE     10
   14   16   ES     -2
   14   16   EE      8
   15   19   SS     10
   15   19   SE      1
   15   19   ES    -12
   15   19   EE     10
   16   18   SS      5
   16   18   SE      7
   16   18   ES     10
   16   18   EE      8
   17   18   SS      3
   17   18   SE    -11
   17   18   ES      0
   17   18   EE     -4
   17   20   SS      6
   17   20   SE      9
   17   20   ES     -5
   17   20   EE      3
   18   19   SS     -1
   18   19   SE      7
   18   19   ES    -12
   18   19   EE     -3
************************************************************************
